420 424 430 
450 454 460 
480 484 490 
510 514 520 
540 544 550 
570 574 580 
600 604 610 
630 634 640 
690 694 700 
748 752 758 
808 812 818 
868 872 878 
928 932 938 
988 992 998 
1021 1025 1031 
1052 1056 1062 
1082 1086 1092 
1112 1116 1122 
